50 2991
1350 360 300 504 288 150 432 216 600 720 150 216 216 360 450 1350 504 504 432 504 1050 72 720 900 600 288 216 1050 900 150 1200 360 720 300 1200 216 900 648 1200 576 150 1350 600 288 288 450 288 288 600 576 
1503 630 334 882 504 167 756 378 668 1260 167 378 378 630 501 1503 882 882 756 882 1169 126 1260 1002 668 504 378 1169 1002 167 1336 630 1260 334 1336 378 1002 1134 1336 1008 167 1503 668 504 504 501 504 504 668 1008 
